(declare-const _a_0_ Real)
(declare-const _a_1_ Real)
(declare-const _a_2_ Real)
(declare-const _a_3_ Real)
(declare-const _a_4_ Real)
(assert (forall ((n_0 Real) (a_0 Real) (t_0 Real) (su_0 Real) ) (=> (and (>= (+ (* 1 n_0) (* 0 1) ) 0)) (and (>= (* 1 n_0)  0)))))
(assert (forall ((n_0 Real) (a_0 Real) (t_0 Real) (su_0 Real) ) (=> (and (>= (+ (* 1 n_0) (* 0 1) ) 0)) (and (>= (* 0 1)  0)))))
(assert (forall ((n_0 Real) (a_0 Real) (t_0 Real) (su_0 Real) ) (=> (and (>= (+ (* 1 n_0) (* 0 1) ) 0)) (and (>= (* 0 1)  0)))))
(assert (forall ((n_0 Real) (a_0 Real) (t_0 Real) (su_0 Real) ) (=> (and (>= (+ (* 1 n_0) (* 0 1) ) 0)) (and (>= (* 0 1)  0)))))
(assert (forall ((n_0 Real) (a_0 Real) (t_0 Real) (su_0 Real) ) (=> (and (>= (+ (* 1 n_0) (* 0 1) ) 0)) (and (>= (* 0 1)  0)))))
(assert (forall ((n_0 Real) (a_0 Real) (t_0 Real) (su_0 Real) ) (=> (and (>= (+ (* 1 n_0) (* -1 (*  a_0   a_0  )) ) 0)(>= (+ (* 2. a_0) (* 1. 1) (* -1 t_0) ) 0)(>= (+ (* 1 t_0) (* -2. a_0) (* -1. 1) ) 0)(>= (+ (* 1 (*  a_0   a_0  )) (* 2. a_0) (* 1. 1) (* -1 su_0) ) 0)(>= (+ (* 1 su_0) (* -1 (*  a_0   a_0  )) (* -2. a_0) (* -1. 1) ) 0)(>= (+ (* -1 n_0) (* 1 su_0) ) 0)) (and (>= (+ (* 1 n_0) (* -1 (*  a_0   a_0  )) ) 0)))))
(assert (forall ((n_0 Real) (a_0 Real) (t_0 Real) (su_0 Real) ) (=> (and (>= (+ (* 1 n_0) (* -1 (*  a_0   a_0  )) ) 0)(>= (+ (* 2. a_0) (* 1. 1) (* -1 t_0) ) 0)(>= (+ (* 1 t_0) (* -2. a_0) (* -1. 1) ) 0)(>= (+ (* 1 (*  a_0   a_0  )) (* 2. a_0) (* 1. 1) (* -1 su_0) ) 0)(>= (+ (* 1 su_0) (* -1 (*  a_0   a_0  )) (* -2. a_0) (* -1. 1) ) 0)(>= (+ (* 1 n_0) (* -1 su_0) ) 0)) (and (>= (+ (* 1 n_0) (* -1 (*  a_0   a_0  )) (* -2. a_0) (* -1. 1) ) 0)))))
(assert (forall ((n_0 Real) (a_0 Real) (t_0 Real) (su_0 Real) ) (=> (and (>= (+ (* 1 n_0) (* -1 (*  a_0   a_0  )) ) 0)(>= (+ (* 2. a_0) (* 1. 1) (* -1 t_0) ) 0)(>= (+ (* 1 t_0) (* -2. a_0) (* -1. 1) ) 0)(>= (+ (* 1 (*  a_0   a_0  )) (* 2. a_0) (* 1. 1) (* -1 su_0) ) 0)(>= (+ (* 1 su_0) (* -1 (*  a_0   a_0  )) (* -2. a_0) (* -1. 1) ) 0)(>= (+ (* 1 n_0) (* -1 su_0) ) 0)) (and (>= (+ (* 2. a_0) (* (+ 3. (* -1 _a_0_)) 1) (* (* -1 _a_1_) t_0) ) 0)))))
(assert (forall ((n_0 Real) (a_0 Real) (t_0 Real) (su_0 Real) ) (=> (and (>= (+ (* 1 n_0) (* -1 (*  a_0   a_0  )) ) 0)(>= (+ (* 2. a_0) (* 1. 1) (* -1 t_0) ) 0)(>= (+ (* 1 t_0) (* -2. a_0) (* -1. 1) ) 0)(>= (+ (* 1 (*  a_0   a_0  )) (* 2. a_0) (* 1. 1) (* -1 su_0) ) 0)(>= (+ (* 1 su_0) (* -1 (*  a_0   a_0  )) (* -2. a_0) (* -1. 1) ) 0)(>= (+ (* 1 n_0) (* -1 su_0) ) 0)) (and (>= (+ (* (+ -3. _a_0_) 1) (* _a_1_ t_0) (* -2. a_0) ) 0)))))
(assert (forall ((n_0 Real) (a_0 Real) (t_0 Real) (su_0 Real) ) (=> (and (>= (+ (* 1 n_0) (* -1 (*  a_0   a_0  )) ) 0)(>= (+ (* 2. a_0) (* 1. 1) (* -1 t_0) ) 0)(>= (+ (* 1 t_0) (* -2. a_0) (* -1. 1) ) 0)(>= (+ (* 1 (*  a_0   a_0  )) (* 2. a_0) (* 1. 1) (* -1 su_0) ) 0)(>= (+ (* 1 su_0) (* -1 (*  a_0   a_0  )) (* -2. a_0) (* -1. 1) ) 0)(>= (+ (* 1 n_0) (* -1 su_0) ) 0)) (and (>= (+ (* 1 (*  a_0   a_0  )) (* 4. a_0) (* (+ 4. (* -1 _a_2_) (* -1 _a_0_ _a_3_)) 1) (* (* -1 _a_1_ _a_3_) t_0) (* (* -1 _a_4_) su_0) ) 0)))))
(assert (forall ((n_0 Real) (a_0 Real) (t_0 Real) (su_0 Real) ) (=> (and (>= (+ (* 1 n_0) (* -1 (*  a_0   a_0  )) ) 0)(>= (+ (* 2. a_0) (* 1. 1) (* -1 t_0) ) 0)(>= (+ (* 1 t_0) (* -2. a_0) (* -1. 1) ) 0)(>= (+ (* 1 (*  a_0   a_0  )) (* 2. a_0) (* 1. 1) (* -1 su_0) ) 0)(>= (+ (* 1 su_0) (* -1 (*  a_0   a_0  )) (* -2. a_0) (* -1. 1) ) 0)(>= (+ (* 1 n_0) (* -1 su_0) ) 0)) (and (>= (+ (* (+ -4. _a_2_ (* _a_0_ _a_3_)) 1) (* (* _a_1_ _a_3_) t_0) (* _a_4_ su_0) (* -1 (*  a_0   a_0  )) (* -4. a_0) ) 0)))))
(check-sat)
(get-model)

